 396395
 75
 70
 2
 73
 3
 74
 5
 0
 23
 1
 22
 46
 24
 21
 45
 25
 69
 47
 44
 68
 48
 4
 67
 7
 8
 26
 6
 27
 20
 30
 19
 31
 49
 29
 50
 9
 28
 43
 10
 53
 42
 54
 52
 32
 51
 33
 66
 12
 65
 11
 13
 14
 55
 56
 35
 17
 34
 18
 15
 36
 37
 16
 58
 40
 57
 41
 38
 59
 60
 39
 63
 71
 64
 61
 62
 72
